c instance by G2
c solution = 00010101100
c Known solution cost is 450 
p cnf 11 30
w 61 76 38 68 12 12 14 77 1 48 43
-6 3 9 0
-9 5 -1 0
-10 6 -11 0
-8 -11 -9 0
-2 -5 -6 0
-7 10 5 0
-6 -5 3 0
6 -1 7 0
-1 -6 -9 0
8 -11 6 0
-7 8 10 0
2 3 -7 0
-7 10 8 0
-4 8 -2 0
11 3 8 0
-7 4 -6 0
11 2 6 0
7 -8 -2 0
1 -2 -8 0
3 -1 -9 0
-6 -4 -2 0
-4 -8 -2 0
-11 -5 -4 0
-10 3 8 0
-10 -8 2 0
-8 2 9 0
-3 -8 11 0
-8 -6 -10 0
-5 -7 3 0
5 4 2 0
